27 69 31 88 62 10 11 19 48 82 7 
52 18 83 45 8 46 47 36 49 64 63 90 32 66 71 65 35 34 78 79 3 77 26 
28 12 76 50 33 81 9 51 20 30 70 1 
53 40 21 73 72 75 23 67 39 25 55 24 29 68 80 54 4 56 74 22 41 43 91 100 37 97 13 58 
59 92 98 85 16 86 38 44 14 42 15 57 2 87 95 94 6 96 99 93 61 17 84 5 60 89 
